1732
1839
2016
2331
2331
2342
2487
2848
2848
2848
2865
2865
3009
3009
3077
3150
3150
3150
3150
3150
3197
3197
3527
3527
3527
3527
3527
3527
3527
3527
3527
3527
3527
3527
3722
3722
3722
3722
3722
3744
3744
3744
3744
3744
3744
3744
3744
3744
3744
3884
3884
3884
3884
3884
3884
3884
3884
3884
3884
3884
3884
3884
3884
3884
3884
3884
3884
3884
3884
3884
3884
3884
3884
3884
3884
3884
3884
3884
3884
3884
3884
3884
3884
3884
3884
3884
3884
3884
3884
3884
3884
3884
3884
3884
3884
3884
3884
3884
3884
